<number of tasks>
20

<cycle time>
1000

<order strength>
0,184


<task times>
1 132
2 125
3 21
4 74
5 209
6 198
7 116
8 117
9 148
10 242
11 174
12 123
13 92
14 164
15 117
16 115
17 78
18 229
19 153
20 178

<precedence relations>
4,9
6,7
6,8
7,14
8,11
9,10
9,12
9,13
10,16
14,15
15,19
15,20
16,17
16,18

<end>
